(set-logic QF_S)
(declare-fun var0 () String)
(assert (str.in.re var0 (re.++ (re.union (re.union (str.to.re "00") (str.to.re "111")) (re.union (str.to.re "222") (str.to.re "3"))) (re.++ (re.+ (re.+ (str.to.re "4"))) (re.union (re.union (str.to.re "5") (str.to.re "666")) (re.union (str.to.re "7") (str.to.re "88")))))))
(check-sat)